Maximize
  0.0163059837038386 Z_75_0_0 + 0.2851636272915478 Z_75_0_1
   + 0.00314156142105201 Z_75_0_2 + 0.00280216670927989 Z_75_0_3
   + 0.592586660874282 Z_75_0_4 + 0.00144545591764055 Z_140_0_0
   + 0.1320945671863756 Z_140_0_1 + 0.00773626090241107 Z_140_0_2
   + 0.00573800124017055 Z_140_0_3 + 0.7529857147534021 Z_140_0_4
   + 0.00190667675612794 Z_298_0_0 + 7.6544446982829096e-04 Z_298_0_1
   + 0.0138040505234108 Z_298_0_2 + 0.7240893820704181 Z_298_0_3
   + 0.159434446180215 Z_298_0_4 + 0.1089627942515172 Z_630_1_0
   + 0.0295034785357798 Z_630_1_1 + 0.0295840605516444 Z_630_1_2
   + 0.0392665472914107 Z_630_1_3 + 0.6926831193696478 Z_630_1_4
   + 9.97566e-05 Z_630_0_0 + 0.00149140037912323 Z_630_0_1
   + 0.8739660828434476 Z_630_0_2 + 0.00215448839949065 Z_630_0_3
   + 0.0222882717512207 Z_630_0_4 + 0.0476027875339337 Z_630_2_0
   + 0.0337611645689542 Z_630_2_1 + 0.00321364110123353 Z_630_2_2
   + 0.758186669681035 Z_630_2_3 + 0.0572357371148437 Z_630_2_4
   + 8.77574e-05 Z_23_0_0 + 0.00162689356565211 Z_23_0_1
   + 0.8871606483086525 Z_23_0_2 + 0.00441291529516732 Z_23_0_3
   + 0.00671178538734665 Z_23_0_4 + 0.0937379216044302 Z_594_6_0
   + 0.1069863660087759 Z_594_6_1 + 0.0382947565866262 Z_594_6_2
   + 0.029312770564181 Z_594_6_3 + 0.6316681852359868 Z_594_6_4
   + 0.00659852234531929 Z_594_4_0 + 0.00420023614890069 Z_594_4_1
   + 0.1207319754557424 Z_594_4_2 + 0.00718726115235437 Z_594_4_3
   + 0.7612820048976833 Z_594_4_4 + 0.00660114835993258 Z_594_2_0
   + 0.00931203508187545 Z_594_2_1 + 0.4495209925777558 Z_594_2_2
   + 0.00776564098307332 Z_594_2_3 + 0.4268001829973628 Z_594_2_4
   + 0.00659852234531929 Z_594_0_0 + 0.00420023614890069 Z_594_0_1
   + 0.1207319754557424 Z_594_0_2 + 0.00718726115235437 Z_594_0_3
   + 0.7612820048976833 Z_594_0_4 + 0.00109234580319437 Z_594_1_0
   + 0.00114013321184668 Z_594_1_1 + 0.0354781523134531 Z_594_1_2
   + 0.00594010930635821 Z_594_1_3 + 0.8563492593651478 Z_594_1_4
   + 4.3682931606185948e-04 Z_594_3_0 + 0.00576963852800964 Z_594_3_1
   + 0.0947619021329079 Z_594_3_2 + 0.00343289071452496 Z_594_3_3
   + 0.7955987393084957 Z_594_3_4 + 0.0594063882520836 Z_594_5_0
   + 0.156608044940401 Z_594_5_1 + 0.0299825933326275 Z_594_5_2
   + 0.0383079811084951 Z_594_5_3 + 0.615694992366393 Z_594_5_4
   + 0.00837039069569273 Z_691_2_0 + 0.0119151604851572 Z_691_2_1
   + 0.4141022514325097 Z_691_2_2 + 0.00613282457715913 Z_691_2_3
   + 0.4594793728094813 Z_691_2_4 + 0.00121790100585119 Z_691_1_0
   + 9.8760218989465249e-04 Z_691_1_1 + 0.0241519168508596 Z_691_1_2
   + 0.00453971458453247 Z_691_1_3 + 0.8691028653688621 Z_691_1_4
   + 0.1538850762906031 Z_691_5_0 + 0.4857353217625444 Z_691_5_1
   + 0.0242602823185505 Z_691_5_2 + 0.00841185580801063 Z_691_5_3
   + 0.2277074638202913 Z_691_5_4 + 0.00174585115085589 Z_691_3_0
   + 0.0049944615449605 Z_691_3_1 + 0.0411267431055317 Z_691_3_2
   + 0.00596099209554847 Z_691_3_3 + 0.8461719521031035 Z_691_3_4
   + 0.00174585115085589 Z_691_4_0 + 0.0049944615449605 Z_691_4_1
   + 0.0411267431055317 Z_691_4_2 + 0.00596099209554847 Z_691_4_3
   + 0.8461719521031035 Z_691_4_4 + 0.0825120316365592 Z_691_0_0
   + 0.0899928798844041 Z_691_0_1 + 0.0713213896056961 Z_691_0_2
   + 0.0472684652704137 Z_691_0_3 + 0.608905233602927 Z_691_0_4
   + 0.00293039029947424 Z_292_1_0 + 0.0434076222355117 Z_292_1_1
   + 0.0660141983229325 Z_292_1_2 + 0.00407314970024949 Z_292_1_3
   + 0.7835746394418321 Z_292_1_4 + 0.0109480351929111 Z_292_0_0
   + 0.0114093 Z_292_0_1 + 0.0863684258966901 Z_292_0_2
   + 0.00694313391755204 Z_292_0_3 + 0.7843311049610449 Z_292_0_4
   + 0.00577279333389914 Z_67_0_0 + 0.7385853058191899 Z_67_0_1
   + 0.003700916558037 Z_67_0_2 + 0.0337856434114256 Z_67_0_3
   + 0.1181553408774486 Z_67_0_4 + 0.0056090791015774 Z_469_0_0
   + 0.7526359547462921 Z_469_0_1 + 0.000757955 Z_469_0_2
   + 0.00758915519669782 Z_469_0_3 + 0.1334078560092642 Z_469_0_4
   + 4.5666872204014824e-04 Z_500_0_0 + 0.7773561283055024 Z_500_0_1
   + 6.6995077954555571e-04 Z_500_0_2 + 0.0076696137455961 Z_500_0_3
   + 0.1138476384473159 Z_500_0_4 + 0.00120190217613081 Z_500_3_0
   + 0.00492767598386915 Z_500_3_1 + 0.00710557354918079 Z_500_3_2
   + 0.0042902769979879 Z_500_3_3 + 0.8824745712928312 Z_500_3_4
   + 0.00860636893592499 Z_500_2_0 + 0.00723123152878231 Z_500_2_1
   + 0.0773661157207415 Z_500_2_2 + 8.0267056652112321e-04 Z_500_2_3
   + 0.8059936132480301 Z_500_2_4 + 0.00768516967881439 Z_500_4_0
   + 0.00594699614138556 Z_500_4_1 + 9.7691353204186178e-04 Z_500_4_2
   + 0.1092894787170125 Z_500_4_3 + 0.7761014419307456 Z_500_4_4
   + 6.30892e-05 Z_500_1_0 + 0.00174367440922053 Z_500_1_1
   + 0.0166939685638816 Z_500_1_2 + 7.4864930033080265e-04 Z_500_1_3
   + 0.8807506184882052 Z_500_1_4 + 0.0385012985601683 Z_500_5_0
   + 0.0791925214931556 Z_500_5_1 + 0.0243580488138024 Z_500_5_2
   + 0.00661221543195787 Z_500_5_3 + 0.7513359157009158 Z_500_5_4
   + 0.00427111525205891 Z_232_0_0 + 0.7189950966451781 Z_232_0_1
   + 0.0194251377831881 Z_232_0_2 + 0.0308378873966538 Z_232_0_3
   + 0.1264707629229211 Z_232_0_4 + 0.6611108550232754 Z_189_1_0
   + 0.0162628670823167 Z_189_1_1 + 0.00665624335787961 Z_189_1_2
   + 0.1311205899199038 Z_189_1_3 + 0.0848494446166245 Z_189_1_4
   + 0.00102370195237237 Z_189_2_0 + 0.00254458549163007 Z_189_2_1
   + 0.8389504026882146 Z_189_2_2 + 0.00611310930831713 Z_189_2_3
   + 0.0513682005594657 Z_189_2_4 + 0.0420414706844435 Z_189_0_0
   + 0.0327388003535861 Z_189_0_1 + 0.00308136638496661 Z_189_0_2
   + 0.7355926083260932 Z_189_0_3 + 0.0865457542509107 Z_189_0_4
   + 0.00403826132134611 Z_339_0_0 + 0.6191408857565955 Z_339_0_1
   + 0.0714373637902498 Z_339_0_2 + 0.0124084972799158 Z_339_0_3
   + 0.1929749918518929 Z_339_0_4 + 0.00837039069569273 Z_339_2_0
   + 0.0119151604851572 Z_339_2_1 + 0.4141022514325097 Z_339_2_2
   + 0.00613282457715913 Z_339_2_3 + 0.4594793728094813 Z_339_2_4
   + 0.00135147893419024 Z_339_1_0 + 0.00168613 Z_339_1_1
   + 0.0073364697498387 Z_339_1_2 + 0.00318807870492876 Z_339_1_3
   + 0.8864378426658113 Z_339_1_4 + 0.0185755342105133 Z_339_3_0
   + 0.3956200592303522 Z_339_3_1 + 0.1342540782883538 Z_339_3_2
   + 0.00159601244890512 Z_339_3_3 + 0.3499543158218757 Z_339_3_4
   + 0.0525212382096368 Z_316_0_0 + 0.1204629480956144 Z_316_0_1
   + 0.0045878502894674 Z_316_0_2 + 0.0484415001914344 Z_316_0_3
   + 0.6739864632138469 Z_316_0_4 + 0.3141875603786584 Z_429_0_0
   + 0.2893967428005781 Z_429_0_1 + 0.026919737883914 Z_429_0_2
   + 0.00752698399356075 Z_429_0_3 + 0.2619689749432886 Z_429_0_4
   + 0.00837039069569273 Z_429_2_0 + 0.0119151604851572 Z_429_2_1
   + 0.4141022514325097 Z_429_2_2 + 0.00613282457715913 Z_429_2_3
   + 0.4594793728094813 Z_429_2_4 + 0.00167604541100342 Z_429_1_0
   + 0.00273181272697112 Z_429_1_1 + 0.00557710306744111 Z_429_1_2
   + 0.00359455 Z_429_1_3 + 0.8864204887672802 Z_429_1_4
   + 0.2498021920561342 Z_429_5_0 + 0.241872055620585 Z_429_5_1
   + 0.0362324596463586 Z_429_5_2 + 0.0383415714411433 Z_429_5_3
   + 0.333751721235779 Z_429_5_4 + 2.4576650981398629e-04 Z_429_3_0
   + 9.1881061177964132e-04 Z_429_3_1 + 0.1315010207243289 Z_429_3_2
   + 0.00842065565495191 Z_429_3_3 + 0.7589137464991256 Z_429_3_4
   + 2.4576650981398629e-04 Z_429_4_0 + 9.1881061177964132e-04 Z_429_4_1
   + 0.1315010207243289 Z_429_4_2 + 0.00842065565495191 Z_429_4_3
   + 0.7589137464991256 Z_429_4_4 + 0.00860636893592499 Z_192_2_0
   + 0.00723123152878231 Z_192_2_1 + 0.0773661157207415 Z_192_2_2
   + 8.0267056652112321e-04 Z_192_2_3 + 0.8059936132480301 Z_192_2_4
   + 0.000790535 Z_192_6_0 + 0.1192358539733314 Z_192_6_1
   + 0.00262732169846573 Z_192_6_2 + 0.113911231657815 Z_192_6_3
   + 0.6634350577076031 Z_192_6_4 + 9.2671966735395595e-04 Z_192_4_0
   + 0.00130233631358074 Z_192_4_1 + 0.0217432725095399 Z_192_4_2
   + 0.00470036381706713 Z_192_4_3 + 0.8713273076924581 Z_192_4_4
   + 9.2671966735395595e-04 Z_192_3_0 + 0.00130233631358074 Z_192_3_1
   + 0.0217432725095399 Z_192_3_2 + 0.00470036381706713 Z_192_3_3
   + 0.8713273076924581 Z_192_3_4 + 3.86814e-05 Z_192_1_0
   + 0.00159274723700621 Z_192_1_1 + 0.00726043162484032 Z_192_1_2
   + 3.6010331877546611e-04 Z_192_1_3 + 0.8907480364238817 Z_192_1_4
   + 6.7878431355223158e-04 Z_192_5_0 + 0.0118799178427737 Z_192_5_1
   + 0.00535771443558865 Z_192_5_2 + 0.002901916282382 Z_192_5_3
   + 0.8791816671257036 Z_192_5_4 + 0.00220826770006681 Z_192_0_0
   + 0.788190376548032 Z_192_0_1 + 0.00426364451563917 Z_192_0_2
   + 0.00965648336537516 Z_192_0_3 + 0.0956812278708868 Z_192_0_4
   + 0.1890862375732551 Z_300_0_0 + 0.3140998224775928 Z_300_0_1
   + 0.00318743213903141 Z_300_0_2 + 0.1194175057052678 Z_300_0_3
   + 0.274209002104853 Z_300_0_4 + 0.1890862375732551 Z_139_0_0
   + 0.3140998224775928 Z_139_0_1 + 0.00318743213903141 Z_139_0_2
   + 0.1194175057052678 Z_139_0_3 + 0.274209002104853 Z_139_0_4
   + 0.0135007039787849 Z_652_0_0 + 0.808587109247925 Z_652_0_1
   + 0.000840169 Z_652_0_2 + 0.00350179325892254 Z_652_0_3
   + 0.0735702245511642 Z_652_0_4 + 0.00602509474623548 Z_652_3_0
   + 0.1101924538044783 Z_652_3_1 + 0.0307645391419014 Z_652_3_2
   + 0.00981044458810581 Z_652_3_3 + 0.7432074677192791 Z_652_3_4
   + 0.00860636893592499 Z_652_2_0 + 0.00723123152878231 Z_652_2_1
   + 0.0773661157207415 Z_652_2_2 + 8.0267056652112321e-04 Z_652_2_3
   + 0.8059936132480301 Z_652_2_4 + 0.00212770360586607 Z_652_6_0
   + 0.00148193098221078 Z_652_6_1 + 0.0313940315268977 Z_652_6_2
   + 0.00899402377758469 Z_652_6_3 + 0.8560023101074407 Z_652_6_4
   + 8.3119234260742541e-04 Z_652_7_0 + 0.1610765736353675 Z_652_7_1
   + 0.00144145061380778 Z_652_7_2 + 0.0129410023422749 Z_652_7_3
   + 0.7237097810659424 Z_652_7_4 + 2.10558e-05 Z_652_1_0
   + 6.8054649079953087e-04 Z_652_1_1 + 0.0117880071416534 Z_652_1_2
   + 4.0421932543603097e-04 Z_652_1_3 + 0.8871061712602192 Z_652_1_4
   + 0.0641244358504652 Z_652_8_0 + 0.1020786056274391 Z_652_8_1
   + 0.00956222940400276 Z_652_8_2 + 0.0820364912463282 Z_652_8_3
   + 0.6421982378717649 Z_652_8_4 + 0.00602509474623548 Z_652_5_0
   + 0.1101924538044783 Z_652_5_1 + 0.0307645391419014 Z_652_5_2
   + 0.00981044458810581 Z_652_5_3 + 0.7432074677192791 Z_652_5_4
   + 0.00131752749335626 Z_652_4_0 + 0.00469366893016441 Z_652_4_1
   + 0.0866227892177869 Z_652_4_2 + 0.00362696968479109 Z_652_4_3
   + 0.8037390446739013 Z_652_4_4 + 0.00226074846578929 Z_672_0_0
   + 0.8188808034345785 Z_672_0_1 + 0.0044185130504787 Z_672_0_2
   + 0.00325543335150943 Z_672_0_3 + 0.0711845016976441 Z_672_0_4
   + 0.00311144174257022 Z_524_0_0 + 0.7955073671269542 Z_524_0_1
   + 0.00875996091960955 Z_524_0_2 + 0.00639219704772412 Z_524_0_3
   + 0.0862290331631419 Z_524_0_4 + 0.2362746287643666 Z_128_0_0
   + 0.0405263061498178 Z_128_0_1 + 0.0370474822591792 Z_128_0_2
   + 0.0324441385465298 Z_128_0_3 + 0.5537074442801065 Z_128_0_4
   + 0.0340689604486347 Z_418_0_0 + 0.6868914781635188 Z_418_0_1
   + 0.0034425889718579 Z_418_0_2 + 0.0516076350538756 Z_418_0_3
   + 0.1239893373621132 Z_418_0_4 + 0.4932309431227956 Z_440_0_0
   + 0.0177476433036808 Z_440_0_1 + 0.0310443935620241 Z_440_0_2
   + 0.0667145049962588 Z_440_0_3 + 0.2912625150152408 Z_440_0_4
   + 8.1760812762600736e-04 Z_440_1_0 + 4.9946665340974694e-04 Z_440_1_1
   + 0.5998299445174544 Z_440_1_2 + 0.00255244819892327 Z_440_1_3
   + 0.2963005325025866 Z_440_1_4 + 0.7221278651521107 Z_644_1_0
   + 0.00619547807869328 Z_644_1_1 + 0.00279362285261465 Z_644_1_2
   + 0.1189847847517029 Z_644_1_3 + 0.0498982491648787 Z_644_1_4
   + 0.000980502 Z_644_2_0 + 0.00245794897818102 Z_644_2_1
   + 0.8512415825528106 Z_644_2_2 + 0.00820387962913551 Z_644_2_3
   + 0.0371160868081745 Z_644_2_4 + 0.029629335443951 Z_644_0_0
   + 0.0113650715735946 Z_644_0_1 + 0.00460338194208623 Z_644_0_2
   + 0.7941617097102531 Z_644_0_3 + 0.0602405013301151 Z_644_0_4
   + 1.2649671508508907e-04 Z_249_0_0 + 2.8220523804218676e-04 Z_249_0_1
   + 0.019125076424936 Z_249_0_2 + 0.00646826740321583 Z_249_0_3
   + 0.873997954218721 Z_249_0_4 + 0.0324579162849159 Z_570_0_0
   + 0.2893384497815893 Z_570_0_1 + 0.00614404167371944 Z_570_0_2
   + 0.00666638902280054 Z_570_0_3 + 0.5653932032369746 Z_570_0_4
   + 0.0025119958254088 Z_237_0_0 + 0.3494968274796242 Z_237_0_1
   + 0.00420848119071522 Z_237_0_2 + 0.00668681619895601 Z_237_0_3
   + 0.5370958793052957 Z_237_0_4 + 0.045291637386856 Z_71_0_0
   + 0.0739664450643683 Z_71_0_1 + 0.0365345202446738 Z_71_0_2
   + 0.0209032562436072 Z_71_0_3 + 0.7233041410604947 Z_71_0_4
   + 0.00236405372316267 Z_252_0_0 + 0.7015559106976487 Z_252_0_1
   + 0.00102036663926809 Z_252_0_2 + 0.00395762446574001 Z_252_0_3
   + 0.1911020444741806 Z_252_0_4
Subject To
 constraint1_750: Z_75_0_0 + Z_75_0_1 + Z_75_0_2 + Z_75_0_3 + Z_75_0_4
   <= 1
 constraint1_1400: Z_140_0_0 + Z_140_0_1 + Z_140_0_2 + Z_140_0_3
   + Z_140_0_4 <= 1
 constraint1_2980: Z_298_0_0 + Z_298_0_1 + Z_298_0_2 + Z_298_0_3
   + Z_298_0_4 <= 1
 constraint1_6301: Z_630_1_0 + Z_630_1_1 + Z_630_1_2 + Z_630_1_3
   + Z_630_1_4 <= 1
 constraint1_6300: Z_630_0_0 + Z_630_0_1 + Z_630_0_2 + Z_630_0_3
   + Z_630_0_4 <= 1
 constraint1_6302: Z_630_2_0 + Z_630_2_1 + Z_630_2_2 + Z_630_2_3
   + Z_630_2_4 <= 1
 constraint1_230: Z_23_0_0 + Z_23_0_1 + Z_23_0_2 + Z_23_0_3 + Z_23_0_4
   <= 1
 constraint1_5946: Z_594_6_0 + Z_594_6_1 + Z_594_6_2 + Z_594_6_3
   + Z_594_6_4 <= 1
 constraint1_5944: Z_594_4_0 + Z_594_4_1 + Z_594_4_2 + Z_594_4_3
   + Z_594_4_4 <= 1
 constraint1_5942: Z_594_2_0 + Z_594_2_1 + Z_594_2_2 + Z_594_2_3
   + Z_594_2_4 <= 1
 constraint1_5940: Z_594_0_0 + Z_594_0_1 + Z_594_0_2 + Z_594_0_3
   + Z_594_0_4 <= 1
 constraint1_5941: Z_594_1_0 + Z_594_1_1 + Z_594_1_2 + Z_594_1_3
   + Z_594_1_4 <= 1
 constraint1_5943: Z_594_3_0 + Z_594_3_1 + Z_594_3_2 + Z_594_3_3
   + Z_594_3_4 <= 1
 constraint1_5945: Z_594_5_0 + Z_594_5_1 + Z_594_5_2 + Z_594_5_3
   + Z_594_5_4 <= 1
 constraint1_6912: Z_691_2_0 + Z_691_2_1 + Z_691_2_2 + Z_691_2_3
   + Z_691_2_4 <= 1
 constraint1_6911: Z_691_1_0 + Z_691_1_1 + Z_691_1_2 + Z_691_1_3
   + Z_691_1_4 <= 1
 constraint1_6915: Z_691_5_0 + Z_691_5_1 + Z_691_5_2 + Z_691_5_3
   + Z_691_5_4 <= 1
 constraint1_6913: Z_691_3_0 + Z_691_3_1 + Z_691_3_2 + Z_691_3_3
   + Z_691_3_4 <= 1
 constraint1_6914: Z_691_4_0 + Z_691_4_1 + Z_691_4_2 + Z_691_4_3
   + Z_691_4_4 <= 1
 constraint1_6910: Z_691_0_0 + Z_691_0_1 + Z_691_0_2 + Z_691_0_3
   + Z_691_0_4 <= 1
 constraint1_2921: Z_292_1_0 + Z_292_1_1 + Z_292_1_2 + Z_292_1_3
   + Z_292_1_4 <= 1
 constraint1_2920: Z_292_0_0 + Z_292_0_1 + Z_292_0_2 + Z_292_0_3
   + Z_292_0_4 <= 1
 constraint1_670: Z_67_0_0 + Z_67_0_1 + Z_67_0_2 + Z_67_0_3 + Z_67_0_4
   <= 1
 constraint1_4690: Z_469_0_0 + Z_469_0_1 + Z_469_0_2 + Z_469_0_3
   + Z_469_0_4 <= 1
 constraint1_5000: Z_500_0_0 + Z_500_0_1 + Z_500_0_2 + Z_500_0_3
   + Z_500_0_4 <= 1
 constraint1_5003: Z_500_3_0 + Z_500_3_1 + Z_500_3_2 + Z_500_3_3
   + Z_500_3_4 <= 1
 constraint1_5002: Z_500_2_0 + Z_500_2_1 + Z_500_2_2 + Z_500_2_3
   + Z_500_2_4 <= 1
 constraint1_5004: Z_500_4_0 + Z_500_4_1 + Z_500_4_2 + Z_500_4_3
   + Z_500_4_4 <= 1
 constraint1_5001: Z_500_1_0 + Z_500_1_1 + Z_500_1_2 + Z_500_1_3
   + Z_500_1_4 <= 1
 constraint1_5005: Z_500_5_0 + Z_500_5_1 + Z_500_5_2 + Z_500_5_3
   + Z_500_5_4 <= 1
 constraint1_2320: Z_232_0_0 + Z_232_0_1 + Z_232_0_2 + Z_232_0_3
   + Z_232_0_4 <= 1
 constraint1_1891: Z_189_1_0 + Z_189_1_1 + Z_189_1_2 + Z_189_1_3
   + Z_189_1_4 <= 1
 constraint1_1892: Z_189_2_0 + Z_189_2_1 + Z_189_2_2 + Z_189_2_3
   + Z_189_2_4 <= 1
 constraint1_1890: Z_189_0_0 + Z_189_0_1 + Z_189_0_2 + Z_189_0_3
   + Z_189_0_4 <= 1
 constraint1_3390: Z_339_0_0 + Z_339_0_1 + Z_339_0_2 + Z_339_0_3
   + Z_339_0_4 <= 1
 constraint1_3392: Z_339_2_0 + Z_339_2_1 + Z_339_2_2 + Z_339_2_3
   + Z_339_2_4 <= 1
 constraint1_3391: Z_339_1_0 + Z_339_1_1 + Z_339_1_2 + Z_339_1_3
   + Z_339_1_4 <= 1
 constraint1_3393: Z_339_3_0 + Z_339_3_1 + Z_339_3_2 + Z_339_3_3
   + Z_339_3_4 <= 1
 constraint1_3160: Z_316_0_0 + Z_316_0_1 + Z_316_0_2 + Z_316_0_3
   + Z_316_0_4 <= 1
 constraint1_4290: Z_429_0_0 + Z_429_0_1 + Z_429_0_2 + Z_429_0_3
   + Z_429_0_4 <= 1
 constraint1_4292: Z_429_2_0 + Z_429_2_1 + Z_429_2_2 + Z_429_2_3
   + Z_429_2_4 <= 1
 constraint1_4291: Z_429_1_0 + Z_429_1_1 + Z_429_1_2 + Z_429_1_3
   + Z_429_1_4 <= 1
 constraint1_4295: Z_429_5_0 + Z_429_5_1 + Z_429_5_2 + Z_429_5_3
   + Z_429_5_4 <= 1
 constraint1_4293: Z_429_3_0 + Z_429_3_1 + Z_429_3_2 + Z_429_3_3
   + Z_429_3_4 <= 1
 constraint1_4294: Z_429_4_0 + Z_429_4_1 + Z_429_4_2 + Z_429_4_3
   + Z_429_4_4 <= 1
 constraint1_1922: Z_192_2_0 + Z_192_2_1 + Z_192_2_2 + Z_192_2_3
   + Z_192_2_4 <= 1
 constraint1_1926: Z_192_6_0 + Z_192_6_1 + Z_192_6_2 + Z_192_6_3
   + Z_192_6_4 <= 1
 constraint1_1924: Z_192_4_0 + Z_192_4_1 + Z_192_4_2 + Z_192_4_3
   + Z_192_4_4 <= 1
 constraint1_1923: Z_192_3_0 + Z_192_3_1 + Z_192_3_2 + Z_192_3_3
   + Z_192_3_4 <= 1
 constraint1_1921: Z_192_1_0 + Z_192_1_1 + Z_192_1_2 + Z_192_1_3
   + Z_192_1_4 <= 1
 constraint1_1925: Z_192_5_0 + Z_192_5_1 + Z_192_5_2 + Z_192_5_3
   + Z_192_5_4 <= 1
 constraint1_1920: Z_192_0_0 + Z_192_0_1 + Z_192_0_2 + Z_192_0_3
   + Z_192_0_4 <= 1
 constraint1_3000: Z_300_0_0 + Z_300_0_1 + Z_300_0_2 + Z_300_0_3
   + Z_300_0_4 <= 1
 constraint1_1390: Z_139_0_0 + Z_139_0_1 + Z_139_0_2 + Z_139_0_3
   + Z_139_0_4 <= 1
 constraint1_6520: Z_652_0_0 + Z_652_0_1 + Z_652_0_2 + Z_652_0_3
   + Z_652_0_4 <= 1
 constraint1_6523: Z_652_3_0 + Z_652_3_1 + Z_652_3_2 + Z_652_3_3
   + Z_652_3_4 <= 1
 constraint1_6522: Z_652_2_0 + Z_652_2_1 + Z_652_2_2 + Z_652_2_3
   + Z_652_2_4 <= 1
 constraint1_6526: Z_652_6_0 + Z_652_6_1 + Z_652_6_2 + Z_652_6_3
   + Z_652_6_4 <= 1
 constraint1_6527: Z_652_7_0 + Z_652_7_1 + Z_652_7_2 + Z_652_7_3
   + Z_652_7_4 <= 1
 constraint1_6521: Z_652_1_0 + Z_652_1_1 + Z_652_1_2 + Z_652_1_3
   + Z_652_1_4 <= 1
 constraint1_6528: Z_652_8_0 + Z_652_8_1 + Z_652_8_2 + Z_652_8_3
   + Z_652_8_4 <= 1
 constraint1_6525: Z_652_5_0 + Z_652_5_1 + Z_652_5_2 + Z_652_5_3
   + Z_652_5_4 <= 1
 constraint1_6524: Z_652_4_0 + Z_652_4_1 + Z_652_4_2 + Z_652_4_3
   + Z_652_4_4 <= 1
 constraint1_6720: Z_672_0_0 + Z_672_0_1 + Z_672_0_2 + Z_672_0_3
   + Z_672_0_4 <= 1
 constraint1_5240: Z_524_0_0 + Z_524_0_1 + Z_524_0_2 + Z_524_0_3
   + Z_524_0_4 <= 1
 constraint1_1280: Z_128_0_0 + Z_128_0_1 + Z_128_0_2 + Z_128_0_3
   + Z_128_0_4 <= 1
 constraint1_4180: Z_418_0_0 + Z_418_0_1 + Z_418_0_2 + Z_418_0_3
   + Z_418_0_4 <= 1
 constraint1_4400: Z_440_0_0 + Z_440_0_1 + Z_440_0_2 + Z_440_0_3
   + Z_440_0_4 <= 1
 constraint1_4401: Z_440_1_0 + Z_440_1_1 + Z_440_1_2 + Z_440_1_3
   + Z_440_1_4 <= 1
 constraint1_6441: Z_644_1_0 + Z_644_1_1 + Z_644_1_2 + Z_644_1_3
   + Z_644_1_4 <= 1
 constraint1_6442: Z_644_2_0 + Z_644_2_1 + Z_644_2_2 + Z_644_2_3
   + Z_644_2_4 <= 1
 constraint1_6440: Z_644_0_0 + Z_644_0_1 + Z_644_0_2 + Z_644_0_3
   + Z_644_0_4 <= 1
 constraint1_2490: Z_249_0_0 + Z_249_0_1 + Z_249_0_2 + Z_249_0_3
   + Z_249_0_4 <= 1
 constraint1_5700: Z_570_0_0 + Z_570_0_1 + Z_570_0_2 + Z_570_0_3
   + Z_570_0_4 <= 1
 constraint1_2370: Z_237_0_0 + Z_237_0_1 + Z_237_0_2 + Z_237_0_3
   + Z_237_0_4 <= 1
 constraint1_710: Z_71_0_0 + Z_71_0_1 + Z_71_0_2 + Z_71_0_3 + Z_71_0_4
   <= 1
 constraint1_2520: Z_252_0_0 + Z_252_0_1 + Z_252_0_2 + Z_252_0_3
   + Z_252_0_4 <= 1
 constraint2_750: Z_75_0_0 <= 1
 constraint2_751: Z_75_0_1 <= 1
 constraint2_752: Z_75_0_2 <= 1
 constraint2_753: Z_75_0_3 <= 1
 constraint2_1400: Z_140_0_0 <= 1
 constraint2_1401: Z_140_0_1 <= 1
 constraint2_1402: Z_140_0_2 <= 1
 constraint2_1403: Z_140_0_3 <= 1
 constraint2_2980: Z_298_0_0 <= 1
 constraint2_2981: Z_298_0_1 <= 1
 constraint2_2982: Z_298_0_2 <= 1
 constraint2_2983: Z_298_0_3 <= 1
 constraint2_6300: Z_630_1_0 + Z_630_0_0 + Z_630_2_0 <= 1
 constraint2_6301: Z_630_1_1 + Z_630_0_1 + Z_630_2_1 <= 1
 constraint2_6302: Z_630_1_2 + Z_630_0_2 + Z_630_2_2 <= 1
 constraint2_6303: Z_630_1_3 + Z_630_0_3 + Z_630_2_3 <= 1
 constraint2_230: Z_23_0_0 <= 1
 constraint2_231: Z_23_0_1 <= 1
 constraint2_232: Z_23_0_2 <= 1
 constraint2_233: Z_23_0_3 <= 1
 constraint2_5940: Z_594_6_0 + Z_594_4_0 + Z_594_2_0 + Z_594_0_0
   + Z_594_1_0 + Z_594_3_0 + Z_594_5_0 <= 1
 constraint2_5941: Z_594_6_1 + Z_594_4_1 + Z_594_2_1 + Z_594_0_1
   + Z_594_1_1 + Z_594_3_1 + Z_594_5_1 <= 1
 constraint2_5942: Z_594_6_2 + Z_594_4_2 + Z_594_2_2 + Z_594_0_2
   + Z_594_1_2 + Z_594_3_2 + Z_594_5_2 <= 1
 constraint2_5943: Z_594_6_3 + Z_594_4_3 + Z_594_2_3 + Z_594_0_3
   + Z_594_1_3 + Z_594_3_3 + Z_594_5_3 <= 1
 constraint2_4760: <= 1
 constraint2_4761: <= 1
 constraint2_4762: <= 1
 constraint2_4763: <= 1
 constraint2_6910: Z_691_2_0 + Z_691_1_0 + Z_691_5_0 + Z_691_3_0
   + Z_691_4_0 + Z_691_0_0 <= 1
 constraint2_6911: Z_691_2_1 + Z_691_1_1 + Z_691_5_1 + Z_691_3_1
   + Z_691_4_1 + Z_691_0_1 <= 1
 constraint2_6912: Z_691_2_2 + Z_691_1_2 + Z_691_5_2 + Z_691_3_2
   + Z_691_4_2 + Z_691_0_2 <= 1
 constraint2_6913: Z_691_2_3 + Z_691_1_3 + Z_691_5_3 + Z_691_3_3
   + Z_691_4_3 + Z_691_0_3 <= 1
 constraint2_2920: Z_292_1_0 + Z_292_0_0 <= 1
 constraint2_2921: Z_292_1_1 + Z_292_0_1 <= 1
 constraint2_2922: Z_292_1_2 + Z_292_0_2 <= 1
 constraint2_2923: Z_292_1_3 + Z_292_0_3 <= 1
 constraint2_670: Z_67_0_0 <= 1
 constraint2_671: Z_67_0_1 <= 1
 constraint2_672: Z_67_0_2 <= 1
 constraint2_673: Z_67_0_3 <= 1
 constraint2_4690: Z_469_0_0 <= 1
 constraint2_4691: Z_469_0_1 <= 1
 constraint2_4692: Z_469_0_2 <= 1
 constraint2_4693: Z_469_0_3 <= 1
 constraint2_5000: Z_500_0_0 + Z_500_3_0 + Z_500_2_0 + Z_500_4_0
   + Z_500_1_0 + Z_500_5_0 <= 1
 constraint2_5001: Z_500_0_1 + Z_500_3_1 + Z_500_2_1 + Z_500_4_1
   + Z_500_1_1 + Z_500_5_1 <= 1
 constraint2_5002: Z_500_0_2 + Z_500_3_2 + Z_500_2_2 + Z_500_4_2
   + Z_500_1_2 + Z_500_5_2 <= 1
 constraint2_5003: Z_500_0_3 + Z_500_3_3 + Z_500_2_3 + Z_500_4_3
   + Z_500_1_3 + Z_500_5_3 <= 1
 constraint2_2320: Z_232_0_0 <= 1
 constraint2_2321: Z_232_0_1 <= 1
 constraint2_2322: Z_232_0_2 <= 1
 constraint2_2323: Z_232_0_3 <= 1
 constraint2_1070: <= 1
 constraint2_1071: <= 1
 constraint2_1072: <= 1
 constraint2_1073: <= 1
 constraint2_1890: Z_189_1_0 + Z_189_2_0 + Z_189_0_0 <= 1
 constraint2_1891: Z_189_1_1 + Z_189_2_1 + Z_189_0_1 <= 1
 constraint2_1892: Z_189_1_2 + Z_189_2_2 + Z_189_0_2 <= 1
 constraint2_1893: Z_189_1_3 + Z_189_2_3 + Z_189_0_3 <= 1
 constraint2_3390: Z_339_0_0 + Z_339_2_0 + Z_339_1_0 + Z_339_3_0 <= 1
 constraint2_3391: Z_339_0_1 + Z_339_2_1 + Z_339_1_1 + Z_339_3_1 <= 1
 constraint2_3392: Z_339_0_2 + Z_339_2_2 + Z_339_1_2 + Z_339_3_2 <= 1
 constraint2_3393: Z_339_0_3 + Z_339_2_3 + Z_339_1_3 + Z_339_3_3 <= 1
 constraint2_3160: Z_316_0_0 <= 1
 constraint2_3161: Z_316_0_1 <= 1
 constraint2_3162: Z_316_0_2 <= 1
 constraint2_3163: Z_316_0_3 <= 1
 constraint2_4290: Z_429_0_0 + Z_429_2_0 + Z_429_1_0 + Z_429_5_0
   + Z_429_3_0 + Z_429_4_0 <= 1
 constraint2_4291: Z_429_0_1 + Z_429_2_1 + Z_429_1_1 + Z_429_5_1
   + Z_429_3_1 + Z_429_4_1 <= 1
 constraint2_4292: Z_429_0_2 + Z_429_2_2 + Z_429_1_2 + Z_429_5_2
   + Z_429_3_2 + Z_429_4_2 <= 1
 constraint2_4293: Z_429_0_3 + Z_429_2_3 + Z_429_1_3 + Z_429_5_3
   + Z_429_3_3 + Z_429_4_3 <= 1
 constraint2_1920: Z_192_2_0 + Z_192_6_0 + Z_192_4_0 + Z_192_3_0
   + Z_192_1_0 + Z_192_5_0 + Z_192_0_0 <= 1
 constraint2_1921: Z_192_2_1 + Z_192_6_1 + Z_192_4_1 + Z_192_3_1
   + Z_192_1_1 + Z_192_5_1 + Z_192_0_1 <= 1
 constraint2_1922: Z_192_2_2 + Z_192_6_2 + Z_192_4_2 + Z_192_3_2
   + Z_192_1_2 + Z_192_5_2 + Z_192_0_2 <= 1
 constraint2_1923: Z_192_2_3 + Z_192_6_3 + Z_192_4_3 + Z_192_3_3
   + Z_192_1_3 + Z_192_5_3 + Z_192_0_3 <= 1
 constraint2_3000: Z_300_0_0 <= 1
 constraint2_3001: Z_300_0_1 <= 1
 constraint2_3002: Z_300_0_2 <= 1
 constraint2_3003: Z_300_0_3 <= 1
 constraint2_1390: Z_139_0_0 <= 1
 constraint2_1391: Z_139_0_1 <= 1
 constraint2_1392: Z_139_0_2 <= 1
 constraint2_1393: Z_139_0_3 <= 1
 constraint2_1470: <= 1
 constraint2_1471: <= 1
 constraint2_1472: <= 1
 constraint2_1473: <= 1
 constraint2_5970: <= 1
 constraint2_5971: <= 1
 constraint2_5972: <= 1
 constraint2_5973: <= 1
 constraint2_730: <= 1
 constraint2_731: <= 1
 constraint2_732: <= 1
 constraint2_733: <= 1
 constraint2_6520: Z_652_0_0 + Z_652_3_0 + Z_652_2_0 + Z_652_6_0
   + Z_652_7_0 + Z_652_1_0 + Z_652_8_0 + Z_652_5_0 + Z_652_4_0 <= 1
 constraint2_6521: Z_652_0_1 + Z_652_3_1 + Z_652_2_1 + Z_652_6_1
   + Z_652_7_1 + Z_652_1_1 + Z_652_8_1 + Z_652_5_1 + Z_652_4_1 <= 1
 constraint2_6522: Z_652_0_2 + Z_652_3_2 + Z_652_2_2 + Z_652_6_2
   + Z_652_7_2 + Z_652_1_2 + Z_652_8_2 + Z_652_5_2 + Z_652_4_2 <= 1
 constraint2_6523: Z_652_0_3 + Z_652_3_3 + Z_652_2_3 + Z_652_6_3
   + Z_652_7_3 + Z_652_1_3 + Z_652_8_3 + Z_652_5_3 + Z_652_4_3 <= 1
 constraint2_6720: Z_672_0_0 <= 1
 constraint2_6721: Z_672_0_1 <= 1
 constraint2_6722: Z_672_0_2 <= 1
 constraint2_6723: Z_672_0_3 <= 1
 constraint2_5240: Z_524_0_0 <= 1
 constraint2_5241: Z_524_0_1 <= 1
 constraint2_5242: Z_524_0_2 <= 1
 constraint2_5243: Z_524_0_3 <= 1
 constraint2_1280: Z_128_0_0 <= 1
 constraint2_1281: Z_128_0_1 <= 1
 constraint2_1282: Z_128_0_2 <= 1
 constraint2_1283: Z_128_0_3 <= 1
 constraint2_4180: Z_418_0_0 <= 1
 constraint2_4181: Z_418_0_1 <= 1
 constraint2_4182: Z_418_0_2 <= 1
 constraint2_4183: Z_418_0_3 <= 1
 constraint2_4400: Z_440_0_0 + Z_440_1_0 <= 1
 constraint2_4401: Z_440_0_1 + Z_440_1_1 <= 1
 constraint2_4402: Z_440_0_2 + Z_440_1_2 <= 1
 constraint2_4403: Z_440_0_3 + Z_440_1_3 <= 1
 constraint2_6440: Z_644_1_0 + Z_644_2_0 + Z_644_0_0 <= 1
 constraint2_6441: Z_644_1_1 + Z_644_2_1 + Z_644_0_1 <= 1
 constraint2_6442: Z_644_1_2 + Z_644_2_2 + Z_644_0_2 <= 1
 constraint2_6443: Z_644_1_3 + Z_644_2_3 + Z_644_0_3 <= 1
 constraint2_2490: Z_249_0_0 <= 1
 constraint2_2491: Z_249_0_1 <= 1
 constraint2_2492: Z_249_0_2 <= 1
 constraint2_2493: Z_249_0_3 <= 1
 constraint2_5700: Z_570_0_0 <= 1
 constraint2_5701: Z_570_0_1 <= 1
 constraint2_5702: Z_570_0_2 <= 1
 constraint2_5703: Z_570_0_3 <= 1
 constraint2_420: <= 1
 constraint2_421: <= 1
 constraint2_422: <= 1
 constraint2_423: <= 1
 constraint2_2370: Z_237_0_0 <= 1
 constraint2_2371: Z_237_0_1 <= 1
 constraint2_2372: Z_237_0_2 <= 1
 constraint2_2373: Z_237_0_3 <= 1
 constraint2_710: Z_71_0_0 <= 1
 constraint2_711: Z_71_0_1 <= 1
 constraint2_712: Z_71_0_2 <= 1
 constraint2_713: Z_71_0_3 <= 1
 constraint2_4910: <= 1
 constraint2_4911: <= 1
 constraint2_4912: <= 1
 constraint2_4913: <= 1
 constraint2_2520: Z_252_0_0 <= 1
 constraint2_2521: Z_252_0_1 <= 1
 constraint2_2522: Z_252_0_2 <= 1
 constraint2_2523: Z_252_0_3 <= 1
Bounds
Binaries
 Z_75_0_0 Z_75_0_1 Z_75_0_2 Z_75_0_3 Z_75_0_4 Z_140_0_0 Z_140_0_1 Z_140_0_2
 Z_140_0_3 Z_140_0_4 Z_298_0_0 Z_298_0_1 Z_298_0_2 Z_298_0_3 Z_298_0_4
 Z_630_1_0 Z_630_1_1 Z_630_1_2 Z_630_1_3 Z_630_1_4 Z_630_0_0 Z_630_0_1
 Z_630_0_2 Z_630_0_3 Z_630_0_4 Z_630_2_0 Z_630_2_1 Z_630_2_2 Z_630_2_3
 Z_630_2_4 Z_23_0_0 Z_23_0_1 Z_23_0_2 Z_23_0_3 Z_23_0_4 Z_594_6_0 Z_594_6_1
 Z_594_6_2 Z_594_6_3 Z_594_6_4 Z_594_4_0 Z_594_4_1 Z_594_4_2 Z_594_4_3
 Z_594_4_4 Z_594_2_0 Z_594_2_1 Z_594_2_2 Z_594_2_3 Z_594_2_4 Z_594_0_0
 Z_594_0_1 Z_594_0_2 Z_594_0_3 Z_594_0_4 Z_594_1_0 Z_594_1_1 Z_594_1_2
 Z_594_1_3 Z_594_1_4 Z_594_3_0 Z_594_3_1 Z_594_3_2 Z_594_3_3 Z_594_3_4
 Z_594_5_0 Z_594_5_1 Z_594_5_2 Z_594_5_3 Z_594_5_4 Z_691_2_0 Z_691_2_1
 Z_691_2_2 Z_691_2_3 Z_691_2_4 Z_691_1_0 Z_691_1_1 Z_691_1_2 Z_691_1_3
 Z_691_1_4 Z_691_5_0 Z_691_5_1 Z_691_5_2 Z_691_5_3 Z_691_5_4 Z_691_3_0
 Z_691_3_1 Z_691_3_2 Z_691_3_3 Z_691_3_4 Z_691_4_0 Z_691_4_1 Z_691_4_2
 Z_691_4_3 Z_691_4_4 Z_691_0_0 Z_691_0_1 Z_691_0_2 Z_691_0_3 Z_691_0_4
 Z_292_1_0 Z_292_1_1 Z_292_1_2 Z_292_1_3 Z_292_1_4 Z_292_0_0 Z_292_0_1
 Z_292_0_2 Z_292_0_3 Z_292_0_4 Z_67_0_0 Z_67_0_1 Z_67_0_2 Z_67_0_3 Z_67_0_4
 Z_469_0_0 Z_469_0_1 Z_469_0_2 Z_469_0_3 Z_469_0_4 Z_500_0_0 Z_500_0_1
 Z_500_0_2 Z_500_0_3 Z_500_0_4 Z_500_3_0 Z_500_3_1 Z_500_3_2 Z_500_3_3
 Z_500_3_4 Z_500_2_0 Z_500_2_1 Z_500_2_2 Z_500_2_3 Z_500_2_4 Z_500_4_0
 Z_500_4_1 Z_500_4_2 Z_500_4_3 Z_500_4_4 Z_500_1_0 Z_500_1_1 Z_500_1_2
 Z_500_1_3 Z_500_1_4 Z_500_5_0 Z_500_5_1 Z_500_5_2 Z_500_5_3 Z_500_5_4
 Z_232_0_0 Z_232_0_1 Z_232_0_2 Z_232_0_3 Z_232_0_4 Z_189_1_0 Z_189_1_1
 Z_189_1_2 Z_189_1_3 Z_189_1_4 Z_189_2_0 Z_189_2_1 Z_189_2_2 Z_189_2_3
 Z_189_2_4 Z_189_0_0 Z_189_0_1 Z_189_0_2 Z_189_0_3 Z_189_0_4 Z_339_0_0
 Z_339_0_1 Z_339_0_2 Z_339_0_3 Z_339_0_4 Z_339_2_0 Z_339_2_1 Z_339_2_2
 Z_339_2_3 Z_339_2_4 Z_339_1_0 Z_339_1_1 Z_339_1_2 Z_339_1_3 Z_339_1_4
 Z_339_3_0 Z_339_3_1 Z_339_3_2 Z_339_3_3 Z_339_3_4 Z_316_0_0 Z_316_0_1
 Z_316_0_2 Z_316_0_3 Z_316_0_4 Z_429_0_0 Z_429_0_1 Z_429_0_2 Z_429_0_3
 Z_429_0_4 Z_429_2_0 Z_429_2_1 Z_429_2_2 Z_429_2_3 Z_429_2_4 Z_429_1_0
 Z_429_1_1 Z_429_1_2 Z_429_1_3 Z_429_1_4 Z_429_5_0 Z_429_5_1 Z_429_5_2
 Z_429_5_3 Z_429_5_4 Z_429_3_0 Z_429_3_1 Z_429_3_2 Z_429_3_3 Z_429_3_4
 Z_429_4_0 Z_429_4_1 Z_429_4_2 Z_429_4_3 Z_429_4_4 Z_192_2_0 Z_192_2_1
 Z_192_2_2 Z_192_2_3 Z_192_2_4 Z_192_6_0 Z_192_6_1 Z_192_6_2 Z_192_6_3
 Z_192_6_4 Z_192_4_0 Z_192_4_1 Z_192_4_2 Z_192_4_3 Z_192_4_4 Z_192_3_0
 Z_192_3_1 Z_192_3_2 Z_192_3_3 Z_192_3_4 Z_192_1_0 Z_192_1_1 Z_192_1_2
 Z_192_1_3 Z_192_1_4 Z_192_5_0 Z_192_5_1 Z_192_5_2 Z_192_5_3 Z_192_5_4
 Z_192_0_0 Z_192_0_1 Z_192_0_2 Z_192_0_3 Z_192_0_4 Z_300_0_0 Z_300_0_1
 Z_300_0_2 Z_300_0_3 Z_300_0_4 Z_139_0_0 Z_139_0_1 Z_139_0_2 Z_139_0_3
 Z_139_0_4 Z_652_0_0 Z_652_0_1 Z_652_0_2 Z_652_0_3 Z_652_0_4 Z_652_3_0
 Z_652_3_1 Z_652_3_2 Z_652_3_3 Z_652_3_4 Z_652_2_0 Z_652_2_1 Z_652_2_2
 Z_652_2_3 Z_652_2_4 Z_652_6_0 Z_652_6_1 Z_652_6_2 Z_652_6_3 Z_652_6_4
 Z_652_7_0 Z_652_7_1 Z_652_7_2 Z_652_7_3 Z_652_7_4 Z_652_1_0 Z_652_1_1
 Z_652_1_2 Z_652_1_3 Z_652_1_4 Z_652_8_0 Z_652_8_1 Z_652_8_2 Z_652_8_3
 Z_652_8_4 Z_652_5_0 Z_652_5_1 Z_652_5_2 Z_652_5_3 Z_652_5_4 Z_652_4_0
 Z_652_4_1 Z_652_4_2 Z_652_4_3 Z_652_4_4 Z_672_0_0 Z_672_0_1 Z_672_0_2
 Z_672_0_3 Z_672_0_4 Z_524_0_0 Z_524_0_1 Z_524_0_2 Z_524_0_3 Z_524_0_4
 Z_128_0_0 Z_128_0_1 Z_128_0_2 Z_128_0_3 Z_128_0_4 Z_418_0_0 Z_418_0_1
 Z_418_0_2 Z_418_0_3 Z_418_0_4 Z_440_0_0 Z_440_0_1 Z_440_0_2 Z_440_0_3
 Z_440_0_4 Z_440_1_0 Z_440_1_1 Z_440_1_2 Z_440_1_3 Z_440_1_4 Z_644_1_0
 Z_644_1_1 Z_644_1_2 Z_644_1_3 Z_644_1_4 Z_644_2_0 Z_644_2_1 Z_644_2_2
 Z_644_2_3 Z_644_2_4 Z_644_0_0 Z_644_0_1 Z_644_0_2 Z_644_0_3 Z_644_0_4
 Z_249_0_0 Z_249_0_1 Z_249_0_2 Z_249_0_3 Z_249_0_4 Z_570_0_0 Z_570_0_1
 Z_570_0_2 Z_570_0_3 Z_570_0_4 Z_237_0_0 Z_237_0_1 Z_237_0_2 Z_237_0_3
 Z_237_0_4 Z_71_0_0 Z_71_0_1 Z_71_0_2 Z_71_0_3 Z_71_0_4 Z_252_0_0 Z_252_0_1
 Z_252_0_2 Z_252_0_3 Z_252_0_4
End
